N = 880;
M = 1176;
Edge_Start = [1, 1, 2, 3, 4, 5, 5, 6, 7, 7, 8, 9, 9, 10, 11, 11, 12, 13, 13, 14, 15, 15, 16, 17, 17, 18, 19, 19, 20, 21, 21, 22, 23, 23, 24, 25, 25, 26, 27, 27, 28, 29, 29, 30, 31, 31, 32, 33, 33, 34, 35, 35, 36, 37, 38, 39, 39, 40, 41, 42, 43, 43, 44, 45, 46, 47, 47, 48, 49, 49, 50, 51, 51, 52, 53, 54, 55, 55, 56, 57, 57, 58, 59, 59, 60, 61, 62, 63, 63, 64, 65, 65, 66, 67, 67, 68, 69, 69, 70, 71, 71, 72, 73, 73, 74, 75, 75, 76, 77, 77, 78, 79, 79, 80, 81, 81, 82, 83, 84, 84, 85, 86, 86, 87, 88, 88, 89, 90, 90, 91, 92, 92, 93, 94, 94, 95, 96, 96, 97, 98, 98, 99, 100, 100, 101, 102, 102, 103, 104, 104, 105, 106, 106, 107, 108, 108, 109, 110, 110, 111, 112, 112, 113, 114, 114, 115, 116, 116, 117, 118, 118, 120, 120, 121, 122, 122, 123, 124, 124, 126, 127, 128, 129, 129, 130, 131, 132, 133, 133, 134, 135, 135, 136, 137, 137, 138, 139, 139, 140, 141, 141, 142, 143, 143, 145, 145, 146, 147, 147, 148, 149, 149, 150, 151, 151, 152, 153, 154, 155, 155, 156, 157, 157, 158, 159, 159, 160, 161, 161, 162, 163, 163, 164, 165, 165, 166, 167, 168, 168, 169, 170, 170, 171, 172, 172, 173, 174, 176, 176, 177, 178, 179, 180, 180, 181, 182, 182, 183, 184, 184, 185, 186, 187, 188, 188, 190, 190, 191, 192, 192, 193, 194, 194, 195, 196, 196, 197, 198, 199, 200, 200, 201, 202, 202, 203, 204, 205, 206, 206, 207, 208, 208, 210, 211, 211, 212, 213, 213, 214, 215, 215, 216, 217, 218, 219, 219, 220, 221, 221, 222, 223, 224, 225, 225, 226, 227, 227, 228, 229, 230, 231, 231, 232, 233, 233, 235, 235, 236, 237, 237, 238, 239, 239, 240, 241, 241, 242, 243, 243, 244, 245, 245, 246, 247, 247, 248, 249, 249, 251, 252, 252, 253, 254, 254, 255, 256, 257, 258, 258, 259, 260, 260, 261, 262, 262, 263, 264, 264, 265, 266, 266, 267, 268, 268, 270, 270, 271, 272, 272, 273, 274, 275, 276, 276, 277, 278, 278, 279, 280, 281, 282, 282, 283, 284, 284, 285, 286, 286, 287, 288, 289, 290, 291, 292, 292, 294, 295, 295, 296, 297, 297, 298, 299, 299, 300, 301, 301, 302, 303, 304, 305, 305, 306, 307, 307, 308, 309, 309, 310, 311, 311, 312, 313, 313, 314, 315, 315, 316, 317, 317, 318, 319, 319, 320, 321, 322, 323, 323, 324, 325, 325, 327, 328, 329, 329, 330, 331, 331, 333, 333, 334, 335, 336, 336, 337, 338, 338, 340, 341, 342, 342, 343, 344, 344, 346, 346, 347, 348, 348, 349, 350, 350, 351, 352, 352, 353, 354, 354, 355, 356, 356, 357, 358, 358, 360, 361, 362, 363, 364, 365, 366, 366, 367, 368, 368, 369, 370, 370, 371, 372, 372, 373, 374, 374, 375, 376, 376, 378, 379, 380, 381, 381, 382, 383, 383, 384, 385, 385, 386, 387, 388, 389, 389, 390, 391, 391, 392, 393, 394, 395, 395, 397, 397, 398, 399, 399, 400, 401, 401, 402, 403, 403, 404, 405, 405, 406, 407, 407, 408, 409, 410, 411, 412, 413, 413, 414, 415, 415, 416, 417, 417, 419, 420, 420, 421, 422, 422, 423, 424, 424, 426, 426, 428, 428, 429, 430, 430, 431, 432, 432, 433, 434, 435, 436, 436, 437, 438, 438, 439, 440, 440, 441, 442, 442, 443, 444, 445, 446, 446, 448, 448, 449, 450, 450, 451, 452, 452, 453, 454, 454, 455, 456, 457, 458, 458, 459, 460, 460, 463, 463, 464, 465, 465, 466, 467, 467, 468, 469, 469, 470, 471, 471, 472, 473, 473, 474, 475, 475, 476, 477, 478, 479, 479, 480, 481, 481, 482, 483, 484, 485, 486, 487, 487, 488, 489, 490, 491, 491, 492, 493, 493, 494, 495, 495, 496, 497, 497, 498, 499, 499, 500, 501, 501, 503, 504, 505, 506, 506, 507, 508, 508, 509, 510, 510, 511, 512, 512, 513, 514, 514, 515, 516, 516, 517, 518, 518, 519, 520, 520, 521, 522, 522, 523, 524, 524, 525, 526, 526, 527, 528, 528, 529, 530, 531, 532, 532, 533, 534, 534, 536, 536, 537, 538, 538, 540, 540, 541, 542, 542, 543, 544, 544, 546, 547, 547, 548, 549, 550, 551, 551, 552, 553, 554, 555, 555, 557, 558, 559, 559, 560, 561, 561, 562, 563, 563, 564, 565, 565, 566, 567, 567, 568, 569, 569, 570, 571, 571, 572, 573, 573, 574, 575, 575, 576, 577, 577, 579, 579, 580, 581, 581, 583, 584, 585, 585, 586, 587, 588, 588, 589, 590, 590, 591, 592, 592, 593, 594, 594, 595, 596, 596, 597, 598, 598, 599, 600, 600, 601, 602, 602, 603, 604, 604, 605, 606, 606, 607, 608, 608, 609, 610, 610, 611, 612, 612, 613, 614, 614, 615, 616, 616, 617, 618, 618, 619, 620, 621, 622, 622, 623, 624, 625, 626, 626, 628, 628, 630, 631, 631, 632, 633, 633, 634, 635, 635, 636, 637, 637, 638, 639, 639, 640, 641, 641, 642, 643, 643, 644, 645, 645, 646, 647, 647, 648, 649, 649, 650, 651, 651, 652, 653, 653, 654, 655, 655, 656, 657, 657, 658, 659, 659, 660, 661, 661, 663, 664, 665, 665, 666, 667, 667, 668, 669, 670, 671, 672, 672, 674, 674, 675, 676, 676, 677, 678, 678, 679, 680, 681, 682, 682, 683, 684, 684, 686, 687, 688, 688, 689, 690, 691, 692, 693, 694, 694, 695, 696, 696, 697, 698, 698, 699, 700, 700, 701, 702, 703, 704, 704, 705, 706, 706, 707, 708, 709, 710, 710, 711, 712, 714, 715, 715, 716, 717, 717, 718, 719, 720, 721, 721, 723, 724, 725, 725, 726, 727, 728, 729, 729, 730, 731, 731, 732, 733, 734, 735, 736, 737, 737, 738, 739, 739, 740, 741, 741, 742, 743, 743, 744, 745, 745, 746, 747, 748, 749, 749, 750, 751, 751, 752, 753, 753, 754, 755, 756, 756, 757, 758, 758, 759, 760, 760, 761, 762, 762, 763, 764, 765, 766, 766, 767, 768, 768, 769, 770, 771, 772, 773, 774, 774, 776, 777, 778, 778, 779, 780, 780, 781, 782, 782, 783, 784, 784, 785, 786, 786, 787, 788, 788, 789, 790, 791, 792, 792, 793, 794, 794, 795, 796, 796, 798, 799, 800, 801, 801, 802, 803, 803, 804, 805, 805, 806, 807, 808, 809, 810, 811, 812, 813, 813, 814, 815, 815, 816, 817, 817, 818, 819, 819, 820, 821, 821, 822, 823, 823, 824, 825, 825, 826, 827, 827, 828, 829, 829, 830, 831, 831, 832, 833, 834, 835, 835, 836, 837, 837, 838, 839, 840, 841, 842, 843, 844, 845, 846, 847, 848, 849, 850, 851, 852, 853, 854, 855, 856, 857, 858, 859, 860, 861, 862, 863, 864, 865, 866, 867, 868, 869, 870, 871, 872, 873, 874, 875, 876, 877, 878, 879];
Edge_End = [2, 42, 3, 44, 5, 6, 46, 7, 8, 48, 9, 10, 50, 11, 12, 52, 13, 14, 54, 15, 16, 56, 17, 18, 58, 19, 20, 60, 21, 22, 62, 23, 24, 64, 25, 26, 66, 27, 28, 68, 29, 30, 70, 31, 32, 72, 33, 34, 74, 35, 36, 76, 37, 38, 39, 40, 80, 41, 82, 43, 44, 85, 45, 46, 47, 48, 89, 49, 50, 91, 51, 52, 93, 53, 95, 55, 56, 97, 57, 58, 99, 59, 60, 101, 61, 62, 63, 64, 105, 65, 66, 107, 67, 68, 109, 69, 70, 111, 71, 72, 113, 73, 74, 115, 75, 76, 117, 77, 78, 119, 79, 80, 121, 81, 82, 123, 83, 125, 85, 126, 86, 87, 128, 88, 89, 130, 90, 91, 132, 92, 93, 134, 94, 95, 136, 96, 97, 138, 98, 99, 140, 100, 101, 142, 102, 103, 144, 104, 105, 146, 106, 107, 148, 108, 109, 150, 110, 111, 152, 112, 113, 154, 114, 115, 156, 116, 117, 158, 118, 119, 160, 121, 162, 122, 123, 164, 124, 125, 166, 127, 128, 129, 130, 171, 131, 173, 133, 134, 175, 135, 136, 177, 137, 138, 179, 139, 140, 181, 141, 142, 183, 143, 144, 185, 146, 187, 147, 148, 189, 149, 150, 191, 151, 152, 193, 153, 195, 155, 156, 197, 157, 158, 199, 159, 160, 201, 161, 162, 203, 163, 164, 205, 165, 166, 207, 167, 209, 169, 210, 170, 171, 212, 172, 173, 214, 174, 216, 177, 218, 178, 179, 180, 181, 222, 182, 183, 224, 184, 185, 226, 186, 187, 188, 189, 230, 191, 232, 192, 193, 234, 194, 195, 236, 196, 197, 238, 198, 199, 200, 201, 242, 202, 203, 244, 204, 205, 206, 207, 248, 208, 209, 250, 211, 212, 253, 213, 214, 255, 215, 216, 257, 217, 259, 219, 220, 261, 221, 222, 263, 223, 224, 225, 226, 267, 227, 228, 269, 229, 230, 231, 232, 273, 233, 234, 275, 236, 277, 237, 238, 279, 239, 240, 281, 241, 242, 283, 243, 244, 285, 245, 246, 287, 247, 248, 289, 249, 250, 291, 293, 253, 294, 254, 255, 296, 256, 298, 258, 259, 300, 260, 261, 302, 262, 263, 304, 264, 265, 306, 266, 267, 308, 268, 269, 310, 271, 312, 272, 273, 314, 274, 316, 276, 277, 318, 278, 279, 320, 280, 281, 282, 283, 324, 284, 285, 326, 286, 287, 328, 288, 330, 290, 291, 292, 293, 334, 295, 296, 337, 297, 298, 339, 299, 300, 341, 301, 302, 343, 303, 304, 305, 306, 347, 307, 308, 349, 309, 310, 351, 311, 312, 353, 313, 314, 355, 315, 316, 357, 317, 318, 359, 319, 320, 361, 321, 363, 323, 324, 365, 325, 326, 367, 328, 329, 330, 371, 331, 332, 373, 334, 375, 335, 377, 337, 378, 338, 339, 380, 382, 342, 343, 384, 344, 345, 386, 347, 388, 348, 349, 390, 350, 351, 392, 352, 353, 394, 354, 355, 396, 356, 357, 398, 358, 359, 400, 402, 362, 363, 364, 365, 366, 367, 408, 368, 369, 410, 370, 371, 412, 372, 373, 414, 374, 375, 416, 376, 377, 418, 379, 421, 381, 382, 423, 383, 384, 425, 385, 386, 427, 387, 429, 389, 390, 431, 391, 392, 433, 393, 394, 395, 396, 437, 398, 439, 399, 400, 441, 401, 402, 443, 403, 404, 445, 405, 406, 447, 407, 408, 449, 409, 410, 411, 453, 413, 414, 455, 415, 416, 457, 417, 418, 459, 461, 421, 462, 422, 423, 464, 424, 425, 466, 427, 468, 429, 470, 430, 431, 472, 432, 433, 474, 434, 435, 436, 437, 478, 438, 439, 480, 440, 441, 482, 442, 443, 484, 444, 445, 446, 447, 488, 449, 490, 450, 451, 492, 452, 453, 494, 454, 455, 496, 456, 457, 458, 459, 500, 460, 461, 502, 464, 505, 465, 466, 507, 467, 468, 509, 469, 470, 511, 471, 472, 513, 473, 474, 515, 475, 476, 517, 477, 478, 479, 480, 521, 481, 482, 523, 483, 525, 485, 527, 487, 488, 529, 489, 490, 491, 492, 533, 493, 494, 535, 495, 496, 537, 497, 498, 539, 499, 500, 541, 501, 502, 543, 545, 505, 506, 507, 548, 508, 509, 550, 510, 511, 552, 512, 513, 554, 514, 515, 556, 516, 517, 558, 518, 519, 560, 520, 521, 562, 522, 523, 564, 524, 525, 566, 526, 527, 568, 528, 529, 570, 530, 531, 532, 533, 574, 534, 535, 576, 537, 578, 538, 539, 580, 541, 582, 542, 543, 584, 544, 545, 586, 547, 548, 589, 549, 591, 551, 552, 593, 553, 595, 555, 556, 597, 558, 559, 560, 601, 561, 562, 603, 563, 564, 605, 565, 566, 607, 567, 568, 609, 569, 570, 611, 571, 572, 613, 573, 574, 615, 575, 576, 617, 577, 578, 619, 580, 621, 581, 582, 623, 625, 585, 586, 627, 587, 629, 589, 630, 590, 591, 632, 592, 593, 634, 594, 595, 636, 596, 597, 638, 598, 599, 640, 600, 601, 642, 602, 603, 644, 604, 605, 646, 606, 607, 648, 608, 609, 650, 610, 611, 652, 612, 613, 654, 614, 615, 656, 616, 617, 658, 618, 619, 660, 620, 621, 622, 623, 664, 624, 666, 626, 627, 668, 629, 670, 631, 632, 673, 633, 634, 675, 635, 636, 677, 637, 638, 679, 639, 640, 681, 641, 642, 683, 643, 644, 685, 645, 646, 687, 647, 648, 689, 649, 650, 691, 651, 652, 693, 653, 654, 695, 655, 656, 697, 657, 658, 699, 659, 660, 701, 661, 662, 703, 664, 665, 666, 707, 667, 668, 709, 669, 711, 671, 713, 673, 714, 675, 716, 676, 677, 718, 678, 679, 720, 680, 681, 682, 683, 724, 684, 685, 726, 687, 688, 689, 730, 690, 732, 692, 734, 694, 695, 736, 696, 697, 738, 698, 699, 740, 700, 701, 742, 702, 744, 704, 705, 746, 706, 707, 748, 708, 709, 710, 711, 752, 712, 754, 715, 716, 757, 717, 718, 759, 719, 761, 721, 722, 763, 724, 725, 726, 767, 727, 728, 729, 730, 771, 731, 732, 773, 733, 775, 735, 777, 737, 738, 779, 739, 740, 781, 741, 742, 783, 743, 744, 785, 745, 746, 787, 747, 789, 749, 750, 791, 751, 752, 793, 753, 754, 795, 755, 797, 757, 798, 758, 759, 800, 760, 761, 802, 762, 763, 804, 764, 806, 766, 767, 808, 768, 769, 810, 770, 812, 772, 773, 774, 775, 816, 777, 778, 779, 820, 780, 781, 822, 782, 783, 824, 784, 785, 826, 786, 787, 828, 788, 789, 830, 790, 832, 792, 793, 834, 794, 795, 836, 796, 797, 838, 799, 800, 801, 802, 842, 803, 804, 844, 805, 806, 846, 807, 808, 809, 810, 811, 852, 813, 814, 854, 815, 816, 856, 817, 818, 858, 819, 820, 860, 821, 822, 862, 823, 824, 864, 825, 826, 866, 827, 828, 868, 829, 830, 870, 831, 832, 872, 833, 874, 835, 836, 876, 837, 838, 878, 839, 880, 841, 842, 843, 844, 845, 846, 847, 848, 849, 850, 851, 852, 853, 854, 855, 856, 857, 858, 859, 860, 861, 862, 863, 864, 865, 866, 867, 868, 869, 870, 871, 872, 873, 874, 875, 876, 877, 878, 879, 880];
L = [1, 17, 5, 13, 1, 11, 15, 8, 13, 5, 5, 12, 6, 9, 13, 3, 15, 3, 13, 11, 15, 5, 16, 16, 9, 13, 1, 5, 3, 3, 10, 7, 1, 17, 17, 12, 18, 7, 10, 19, 15, 1, 12, 9, 18, 10, 4, 10, 6, 15, 5, 9, 2, 7, 12, 8, 14, 2, 15, 16, 7, 13, 7, 3, 5, 8, 1, 15, 13, 8, 10, 8, 9, 10, 6, 16, 4, 10, 9, 19, 6, 6, 11, 10, 3, 14, 14, 2, 2, 4, 19, 9, 11, 10, 8, 13, 17, 17, 3, 5, 12, 14, 16, 10, 16, 16, 14, 16, 7, 6, 16, 2, 2, 18, 8, 7, 17, 7, 12, 2, 10, 3, 13, 1, 12, 16, 13, 1, 10, 3, 18, 18, 10, 7, 8, 1, 16, 10, 12, 2, 15, 3, 17, 10, 1, 2, 1, 18, 8, 13, 1, 4, 13, 10, 15, 9, 1, 10, 17, 1, 8, 10, 17, 16, 17, 2, 4, 9, 4, 1, 11, 1, 7, 2, 16, 12, 1, 4, 7, 13, 11, 16, 9, 9, 2, 14, 12, 14, 1, 17, 15, 8, 16, 18, 16, 14, 12, 12, 8, 8, 15, 3, 10, 5, 16, 17, 5, 2, 19, 12, 5, 4, 18, 11, 17, 11, 6, 15, 3, 6, 15, 7, 10, 15, 9, 6, 17, 9, 13, 2, 9, 8, 14, 15, 3, 17, 15, 6, 18, 4, 1, 14, 2, 2, 8, 2, 15, 2, 18, 4, 3, 6, 3, 16, 14, 16, 13, 1, 8, 16, 7, 14, 2, 5, 13, 14, 5, 6, 3, 19, 3, 13, 16, 16, 6, 14, 13, 1, 4, 8, 7, 3, 15, 19, 9, 12, 6, 6, 11, 1, 2, 3, 9, 4, 8, 6, 2, 1, 3, 11, 16, 14, 18, 2, 14, 1, 11, 19, 13, 17, 15, 10, 1, 2, 11, 9, 18, 9, 16, 18, 4, 4, 5, 10, 15, 16, 2, 16, 4, 9, 3, 8, 11, 10, 14, 15, 5, 12, 6, 16, 14, 5, 10, 3, 11, 7, 18, 6, 3, 18, 16, 12, 5, 17, 6, 1, 2, 10, 19, 6, 13, 4, 3, 13, 8, 5, 4, 15, 10, 11, 9, 9, 17, 14, 4, 14, 16, 10, 6, 7, 13, 14, 9, 16, 4, 18, 9, 1, 18, 5, 16, 4, 9, 11, 6, 9, 17, 15, 3, 6, 5, 9, 1, 5, 11, 7, 1, 13, 3, 6, 13, 10, 8, 9, 15, 5, 13, 12, 2, 14, 11, 12, 4, 15, 6, 8, 4, 5, 18, 15, 4, 1, 14, 1, 8, 18, 5, 2, 17, 1, 10, 2, 18, 10, 5, 7, 11, 5, 13, 14, 12, 4, 7, 1, 15, 13, 14, 1, 8, 9, 15, 12, 8, 4, 18, 13, 1, 7, 2, 6, 1, 12, 6, 3, 3, 13, 3, 10, 10, 8, 8, 19, 2, 13, 17, 1, 13, 2, 7, 9, 15, 10, 6, 15, 11, 1, 4, 5, 1, 4, 5, 1, 6, 4, 17, 10, 4, 10, 1, 6, 14, 8, 5, 18, 18, 16, 4, 5, 16, 6, 12, 16, 14, 12, 7, 7, 7, 4, 10, 1, 8, 9, 12, 14, 4, 17, 1, 17, 13, 18, 2, 15, 16, 12, 5, 16, 1, 15, 2, 3, 6, 7, 17, 7, 14, 10, 12, 12, 11, 7, 1, 4, 6, 6, 12, 1, 18, 7, 18, 9, 18, 8, 16, 10, 11, 6, 5, 4, 2, 5, 7, 9, 4, 11, 16, 7, 11, 3, 8, 3, 16, 16, 4, 13, 9, 7, 5, 10, 9, 15, 14, 10, 6, 1, 16, 1, 8, 6, 18, 18, 11, 18, 14, 8, 15, 4, 11, 4, 13, 8, 6, 15, 18, 3, 3, 9, 3, 16, 6, 18, 19, 16, 15, 13, 13, 19, 15, 10, 19, 14, 14, 2, 10, 3, 16, 10, 3, 10, 18, 13, 19, 10, 17, 4, 1, 4, 19, 3, 1, 17, 12, 7, 8, 9, 11, 3, 5, 8, 7, 6, 13, 10, 14, 10, 17, 15, 19, 7, 1, 5, 16, 12, 13, 4, 12, 14, 2, 3, 5, 12, 12, 18, 18, 14, 1, 18, 18, 18, 5, 19, 7, 10, 6, 9, 13, 8, 9, 12, 7, 18, 11, 15, 15, 1, 13, 4, 8, 7, 9, 1, 15, 13, 2, 8, 3, 1, 9, 17, 14, 17, 16, 15, 10, 13, 8, 7, 14, 13, 1, 5, 13, 12, 2, 1, 15, 1, 12, 11, 6, 14, 8, 1, 16, 18, 2, 8, 18, 18, 17, 4, 7, 6, 8, 6, 2, 3, 2, 15, 17, 6, 3, 13, 13, 10, 11, 1, 5, 15, 16, 19, 2, 17, 12, 19, 12, 12, 19, 12, 3, 14, 15, 9, 1, 1, 9, 8, 8, 8, 17, 5, 11, 17, 9, 1, 5, 13, 17, 4, 11, 3, 18, 8, 5, 9, 19, 2, 7, 6, 6, 13, 17, 5, 1, 11, 6, 13, 9, 1, 7, 3, 3, 7, 12, 14, 18, 3, 9, 19, 10, 17, 9, 8, 11, 8, 4, 3, 8, 9, 8, 11, 8, 13, 4, 13, 16, 1, 13, 8, 13, 10, 17, 19, 6, 5, 2, 9, 18, 11, 18, 2, 2, 5, 9, 3, 16, 17, 2, 12, 8, 19, 6, 1, 4, 3, 5, 6, 8, 1, 19, 18, 7, 2, 11, 2, 16, 2, 11, 3, 1, 10, 13, 15, 8, 6, 11, 18, 17, 5, 18, 2, 13, 5, 9, 10, 18, 18, 12, 15, 9, 9, 1, 7, 19, 15, 6, 9, 3, 4, 13, 10, 11, 7, 17, 10, 14, 5, 11, 12, 16, 12, 3, 18, 5, 6, 5, 3, 13, 12, 9, 9, 12, 4, 16, 10, 7, 4, 15, 18, 12, 8, 7, 3, 3, 9, 15, 1, 18, 3, 18, 9, 10, 4, 4, 5, 9, 6, 3, 18, 9, 5, 13, 5, 17, 10, 5, 2, 13, 2, 6, 15, 7, 6, 17, 8, 6, 8, 13, 5, 6, 12, 11, 13, 2, 3, 12, 8, 17, 6, 5, 3, 18, 15, 13, 17, 5, 4, 17, 2, 14, 16, 19, 7, 10, 5, 16, 1, 10, 10, 7, 10, 14, 16, 2, 11, 10, 12, 18, 1, 12, 2, 10, 14, 16, 12, 18, 9, 6, 14, 15, 3, 1, 2, 14, 15, 10, 7, 12, 1, 3, 5, 1, 1, 11, 16, 4, 9, 6, 12, 14, 1, 1, 9, 15, 5, 17, 10, 1, 5, 7, 1, 15, 3, 10, 12, 18, 6, 10, 1, 1, 15, 16, 17, 6, 7, 2, 15, 16, 15, 9, 11, 2, 8, 9, 2, 19, 2, 3, 2, 12, 12, 19, 17, 1, 3, 16, 18, 6, 1, 12, 5, 1, 3, 13, 7, 13, 1, 1, 9, 12, 19, 6, 9, 6, 13, 12, 5, 12, 6, 3, 17, 5, 1, 13, 12, 8, 8, 11, 9, 18, 17, 18, 15, 2, 2, 2, 3, 4, 1, 16, 2, 4, 14, 13, 6, 18, 19, 1, 16, 11, 2, 13, 13, 15, 1, 12, 10];
T = [18, 12, 6, 15, 6, 10, 13, 16, 12, 2, 7, 7, 5, 12, 13, 7, 11, 8, 13, 15, 12, 11, 7, 17, 1, 24, 5, 6, 7, 5, 9, 9, 4, 7, 6, 6, 17, 1, 11, 16, 18, 3, 22, 10, 14, 4, 2, 4, 1, 5, 1, 2, 1, 18, 4, 9, 20, 2, 24, 5, 10, 14, 3, 1, 8, 23, 1, 10, 13, 8, 6, 8, 11, 10, 2, 18, 2, 1, 10, 17, 2, 4, 13, 14, 2, 16, 15, 1, 7, 6, 18, 8, 16, 18, 9, 12, 14, 17, 9, 2, 5, 13, 6, 7, 13, 20, 14, 17, 1, 4, 20, 1, 1, 13, 12, 9, 10, 4, 10, 1, 11, 1, 12, 1, 6, 17, 13, 4, 14, 3, 18, 27, 8, 12, 2, 1, 14, 8, 12, 1, 10, 1, 21, 13, 1, 1, 1, 19, 12, 7, 1, 2, 16, 2, 6, 1, 1, 9, 9, 3, 15, 10, 12, 14, 4, 1, 12, 1, 1, 1, 10, 1, 5, 1, 18, 8, 1, 1, 6, 16, 18, 13, 15, 8, 5, 14, 16, 20, 1, 13, 11, 11, 8, 13, 11, 14, 2, 12, 10, 5, 20, 1, 7, 12, 22, 14, 9, 2, 12, 7, 1, 4, 21, 19, 18, 7, 7, 12, 1, 5, 15, 9, 6, 8, 3, 4, 12, 14, 10, 2, 18, 8, 14, 18, 1, 31, 16, 7, 18, 3, 2, 14, 11, 8, 10, 8, 15, 4, 13, 6, 1, 3, 1, 16, 3, 18, 9, 1, 7, 14, 3, 12, 9, 10, 8, 10, 1, 9, 13, 23, 7, 8, 16, 22, 10, 16, 10, 1, 1, 8, 14, 5, 10, 23, 4, 8, 1, 4, 18, 1, 2, 1, 5, 5, 7, 5, 3, 1, 1, 17, 26, 11, 17, 1, 11, 1, 7, 13, 1, 20, 16, 12, 2, 1, 13, 3, 22, 14, 13, 18, 1, 1, 2, 12, 19, 16, 1, 22, 1, 13, 6, 10, 11, 5, 12, 16, 1, 11, 5, 21, 11, 9, 9, 7, 12, 2, 20, 9, 11, 28, 12, 6, 1, 16, 5, 6, 1, 7, 15, 1, 6, 4, 1, 6, 9, 1, 10, 9, 7, 16, 13, 17, 10, 20, 3, 15, 14, 12, 1, 2, 15, 12, 7, 17, 7, 14, 6, 3, 14, 11, 20, 1, 3, 10, 13, 6, 15, 15, 2, 21, 8, 4, 1, 15, 9, 8, 1, 8, 1, 7, 13, 6, 9, 10, 11, 3, 9, 13, 1, 14, 22, 10, 3, 15, 13, 9, 3, 8, 29, 6, 2, 9, 13, 1, 6, 16, 1, 1, 15, 1, 20, 1, 19, 12, 3, 10, 15, 7, 14, 17, 9, 9, 5, 1, 21, 17, 14, 1, 1, 8, 15, 14, 2, 1, 10, 6, 1, 14, 9, 6, 1, 8, 1, 6, 1, 10, 9, 3, 8, 8, 13, 18, 1, 5, 16, 1, 11, 1, 8, 15, 14, 12, 2, 7, 7, 1, 3, 1, 3, 1, 2, 1, 7, 7, 15, 10, 2, 1, 1, 16, 23, 2, 1, 15, 23, 11, 6, 1, 18, 11, 9, 22, 5, 17, 8, 2, 1, 8, 11, 1, 3, 7, 6, 6, 4, 10, 1, 16, 10, 11, 6, 20, 14, 14, 7, 5, 8, 11, 1, 1, 10, 5, 20, 4, 15, 18, 11, 15, 2, 13, 1, 2, 7, 1, 17, 1, 19, 1, 20, 7, 23, 4, 16, 5, 7, 7, 18, 9, 1, 1, 10, 9, 5, 14, 8, 3, 13, 1, 13, 8, 15, 20, 1, 19, 4, 9, 1, 7, 11, 16, 22, 8, 1, 1, 2, 1, 2, 5, 15, 14, 11, 1, 9, 13, 18, 10, 10, 12, 13, 6, 6, 21, 22, 1, 8, 8, 1, 13, 11, 14, 18, 21, 15, 14, 11, 12, 18, 11, 24, 19, 11, 1, 18, 8, 13, 7, 2, 1, 18, 13, 18, 5, 19, 1, 3, 1, 12, 2, 1, 20, 16, 9, 5, 3, 9, 8, 5, 15, 2, 2, 16, 14, 8, 2, 22, 13, 22, 7, 1, 1, 15, 15, 10, 7, 8, 19, 1, 1, 1, 10, 10, 15, 14, 21, 6, 12, 18, 19, 3, 18, 6, 19, 8, 4, 23, 8, 8, 16, 17, 19, 21, 15, 12, 2, 8, 1, 1, 1, 1, 1, 14, 15, 2, 12, 1, 2, 14, 24, 10, 21, 12, 10, 9, 8, 2, 1, 12, 12, 3, 11, 2, 7, 8, 1, 17, 3, 6, 5, 6, 5, 5, 1, 22, 13, 1, 5, 19, 19, 17, 3, 7, 7, 11, 1, 1, 9, 6, 24, 23, 13, 1, 12, 1, 1, 23, 1, 7, 14, 2, 14, 7, 18, 12, 18, 20, 22, 19, 15, 13, 20, 23, 7, 4, 1, 5, 7, 9, 9, 16, 7, 8, 26, 1, 2, 1, 12, 26, 2, 16, 5, 9, 11, 3, 14, 18, 5, 9, 12, 10, 8, 7, 1, 11, 11, 1, 10, 1, 6, 9, 6, 3, 7, 15, 16, 19, 1, 14, 17, 10, 17, 5, 3, 12, 2, 1, 1, 3, 7, 5, 18, 3, 11, 6, 12, 17, 1, 14, 4, 3, 6, 14, 15, 1, 1, 1, 8, 19, 5, 17, 1, 11, 8, 1, 1, 10, 17, 1, 7, 10, 28, 3, 1, 5, 1, 5, 11, 8, 1, 18, 18, 12, 3, 20, 6, 21, 5, 8, 1, 1, 10, 17, 10, 5, 1, 3, 20, 11, 4, 14, 1, 13, 1, 18, 7, 20, 12, 14, 11, 7, 9, 1, 7, 14, 11, 3, 11, 2, 3, 10, 3, 4, 4, 13, 17, 10, 5, 4, 10, 15, 19, 9, 22, 10, 4, 10, 6, 14, 14, 19, 3, 13, 7, 13, 5, 3, 13, 13, 23, 22, 4, 8, 11, 6, 5, 15, 1, 16, 2, 19, 2, 14, 1, 7, 2, 16, 1, 1, 18, 10, 7, 1, 14, 14, 5, 11, 1, 6, 2, 1, 12, 6, 12, 11, 1, 11, 7, 10, 1, 8, 11, 20, 8, 1, 3, 4, 1, 15, 5, 5, 5, 13, 22, 16, 11, 10, 1, 15, 1, 5, 10, 21, 13, 12, 2, 29, 1, 13, 8, 11, 7, 5, 18, 1, 1, 7, 1, 16, 1, 4, 5, 13, 9, 18, 5, 19, 6, 5, 17, 13, 4, 1, 1, 16, 16, 16, 13, 15, 1, 3, 1, 3, 7, 10, 15, 4, 9, 7, 11, 7, 1, 3, 9, 14, 1, 15, 12, 1, 6, 4, 1, 1, 3, 12, 17, 17, 11, 14, 1, 1, 24, 6, 18, 2, 2, 3, 20, 12, 3, 3, 8, 8, 1, 11, 1, 26, 1, 9, 1, 19, 19, 29, 12, 1, 13, 22, 20, 8, 1, 12, 1, 1, 4, 22, 9, 8, 1, 1, 13, 11, 12, 1, 10, 1, 11, 15, 1, 6, 3, 9, 16, 5, 1, 11, 16, 12, 7, 15, 1, 19, 9, 16, 15, 1, 1, 6, 11, 3, 1, 13, 4, 1, 14, 15, 17, 16, 19, 1, 16, 14, 5, 10, 8, 18, 1, 8, 8];
Lower_Bound = [0, 18, 24, 50, 44, 54, 64, 76, 83, 90, 99, 112, 123, 131, 127, 139, 144, 161, 166, 171, 178, 183, 192, 196, 202, 208, 209, 220, 238, 239, 229, 243, 245, 249, 254, 255, 256, 274, 278, 287, 289, 12, 17, 27, 30, 31, 39, 62, 65, 78, 84, 92, 100, 132, 114, 116, 126, 143, 147, 160, 162, 178, 186, 187, 190, 208, 199, 217, 217, 231, 223, 225, 238, 244, 257, 256, 263, 264, 284, 285, 298, 310, 310, 41, 31, 42, 43, 44, 40, 53, 57, 60, 78, 86, 98, 99, 113, 125, 126, 127, 148, 147, 148, 167, 179, 180, 182, 184, 190, 191, 200, 203, 218, 230, 244, 245, 257, 258, 259, 286, 285, 286, 304, 305, 306, 42, 58, 54, 67, 61, 66, 67, 83, 87, 99, 88, 96, 107, 121, 123, 133, 138, 139, 146, 169, 174, 183, 185, 186, 185, 206, 200, 207, 213, 225, 226, 241, 246, 254, 257, 269, 283, 285, 294, 283, 301, 301, 87, 80, 77, 75, 86, 80, 88, 84, 114, 110, 108, 107, 110, 111, 114, 132, 133, 140, 143, 155, 164, 174, 192, 190, 199, 212, 219, 214, 236, 230, 240, 241, 242, 250, 255, 265, 269, 277, 278, 282, 283, 285, 101, 96, 91, 96, 96, 97, 103, 114, 127, 128, 139, 137, 126, 139, 123, 135, 137, 150, 153, 167, 172, 190, 191, 193, 205, 232, 235, 253, 252, 258, 268, 268, 256, 257, 268, 289, 300, 303, 296, 298, 284, 334, 131, 103, 98, 97, 102, 123, 124, 131, 132, 129, 130, 136, 137, 147, 152, 136, 153, 163, 210, 213, 203, 191, 193, 212, 224, 231, 238, 252, 255, 269, 280, 275, 272, 262, 268, 283, 285, 315, 311, 307, 308, 323, 123, 115, 114, 115, 108, 114, 123, 134, 136, 140, 139, 153, 146, 149, 164, 173, 173, 189, 195, 200, 204, 210, 208, 209, 224, 244, 244, 256, 280, 270, 281, 275, 285, 292, 283, 288, 289, 306, 320, 318, 317, 332, 125, 123, 133, 128, 168, 124, 133, 139, 143, 144, 164, 163, 165, 162, 170, 181, 182, 187, 188, 199, 207, 211, 212, 210, 244, 263, 262, 259, 260, 263, 264, 266, 273, 280, 290, 292, 293, 307, 309, 310, 333, 344, 126, 127, 134, 145, 154, 151, 134, 136, 137, 148, 169, 166, 173, 179, 183, 184, 198, 200, 189, 230, 221, 226, 219, 227, 237, 236, 246, 253, 257, 275, 265, 267, 280, 281, 291, 298, 299, 300, 319, 339, 339, 337, 161, 145, 152, 159, 160, 159, 154, 144, 154, 149, 157, 160, 161, 174, 189, 209, 210, 206, 215, 216, 227, 231, 229, 228, 230, 231, 233, 238, 271, 285, 286, 295, 287, 283, 295, 308, 314, 301, 323, 324, 332, 333, 166, 181, 170, 182, 161, 174, 163, 179, 168, 181, 170, 177, 169, 176, 178, 196, 209, 227, 222, 223, 226, 236, 230, 231, 259, 243, 248, 251, 260, 268, 273, 275, 277, 291, 299, 321, 334, 332, 331, 346, 345, 369, 203, 195, 198, 197, 196, 186, 201, 200, 194, 182, 193, 190, 196, 177, 181, 204, 212, 228, 224, 224, 232, 234, 235, 236, 237, 238, 253, 255, 267, 268, 282, 291, 314, 293, 303, 312, 335, 333, 345, 356, 360, 362, 208, 200, 199, 202, 206, 211, 217, 222, 212, 224, 211, 209, 204, 208, 189, 192, 199, 208, 209, 218, 224, 227, 236, 236, 237, 260, 261, 271, 269, 276, 292, 310, 326, 320, 311, 324, 336, 381, 348, 352, 353, 360, 226, 217, 216, 208, 209, 211, 214, 223, 230, 225, 236, 239, 226, 221, 209, 199, 206, 207, 218, 219, 220, 226, 232, 235, 250, 266, 267, 281, 291, 288, 291, 303, 304, 305, 308, 315, 333, 374, 363, 357, 386, 369, 242, 234, 230, 224, 210, 211, 212, 220, 239, 245, 244, 236, 235, 234, 217, 224, 217, 220, 221, 222, 227, 235, 236, 254, 266, 286, 284, 289, 296, 297, 293, 303, 308, 316, 313, 333, 336, 350, 351, 352, 387, 394, 249, 237, 233, 222, 213, 212, 226, 225, 236, 238, 241, 237, 239, 235, 257, 240, 230, 225, 235, 233, 252, 253, 267, 257, 267, 273, 287, 290, 303, 310, 307, 304, 317, 330, 341, 337, 348, 354, 359, 370, 377, 414, 249, 230, 228, 227, 220, 236, 229, 230, 248, 251, 244, 245, 252, 252, 241, 240, 234, 235, 247, 259, 261, 262, 271, 276, 281, 289, 290, 298, 299, 303, 304, 309, 314, 327, 349, 365, 376, 375, 360, 365, 375, 388, 245, 243, 242, 229, 240, 237, 241, 240, 245, 276, 260, 259, 264, 277, 295, 242, 247, 241, 246, 263, 277, 273, 274, 275, 291, 307, 302, 301, 302, 305, 315, 314, 323, 330, 337, 375, 378, 376, 377, 386, 387, 393, 252, 251, 250, 253, 245, 253, 242, 243, 244, 250, 264, 266, 268, 271, 290, 278, 275, 267, 259, 270, 271, 272, 281, 300, 304, 306, 305, 317, 309, 310, 319, 320, 324, 333, 338, 339, 382, 371, 383, 392, 391, 406, 279, 273, 270, 279, 267, 268, 267, 278, 294, 306, 307, 292, 291, 290, 281, 283, 268, 269, 270, 276, 273, 276, 277, 290, 294, 295, 309, 324, 311, 327, 342, 343, 334, 348, 352, 362, 370, 388, 389, 397, 405];
Upper_Bound = [1, 19, 25, 51, 45, 55, 65, 77, 84, 91, 100, 113, 124, 132, 128, 140, 145, 162, 167, 172, 179, 184, 193, 197, 203, 209, 210, 221, 239, 240, 230, 244, 246, 250, 255, 256, 257, 275, 279, 288, 290, 13, 18, 28, 31, 32, 40, 63, 66, 79, 85, 93, 101, 133, 115, 117, 127, 144, 148, 161, 163, 179, 187, 188, 191, 209, 200, 218, 218, 232, 224, 226, 239, 245, 258, 257, 264, 265, 285, 286, 299, 311, 311, 42, 32, 43, 44, 45, 41, 54, 58, 61, 79, 87, 99, 100, 114, 126, 127, 128, 149, 148, 149, 168, 180, 181, 183, 185, 191, 192, 201, 204, 219, 231, 245, 246, 258, 259, 260, 287, 286, 287, 305, 306, 307, 43, 59, 55, 68, 62, 67, 68, 84, 88, 100, 89, 97, 108, 122, 124, 134, 139, 140, 147, 170, 175, 184, 186, 187, 186, 207, 201, 208, 214, 226, 227, 242, 247, 255, 258, 270, 284, 286, 295, 284, 302, 302, 88, 81, 78, 76, 87, 81, 89, 85, 115, 111, 109, 108, 111, 112, 115, 133, 134, 141, 144, 156, 165, 175, 193, 191, 200, 213, 220, 215, 237, 231, 241, 242, 243, 251, 256, 266, 270, 278, 279, 283, 284, 286, 102, 97, 92, 97, 97, 98, 104, 115, 128, 129, 140, 138, 127, 140, 124, 136, 138, 151, 154, 168, 173, 191, 192, 194, 206, 233, 236, 254, 253, 259, 269, 269, 257, 258, 269, 290, 301, 304, 297, 299, 285, 335, 132, 104, 99, 98, 103, 124, 125, 132, 133, 130, 131, 137, 138, 148, 153, 137, 154, 164, 211, 214, 204, 192, 194, 213, 225, 232, 239, 253, 256, 270, 281, 276, 273, 263, 269, 284, 286, 316, 312, 308, 309, 324, 124, 116, 115, 116, 109, 115, 124, 135, 137, 141, 140, 154, 147, 150, 165, 174, 174, 190, 196, 201, 205, 211, 209, 210, 225, 245, 245, 257, 281, 271, 282, 276, 286, 293, 284, 289, 290, 307, 321, 319, 318, 333, 126, 124, 134, 129, 169, 125, 134, 140, 144, 145, 165, 164, 166, 163, 171, 182, 183, 188, 189, 200, 208, 212, 213, 211, 245, 264, 263, 260, 261, 264, 265, 267, 274, 281, 291, 293, 294, 308, 310, 311, 334, 345, 127, 128, 135, 146, 155, 152, 135, 137, 138, 149, 170, 167, 174, 180, 184, 185, 199, 201, 190, 231, 222, 227, 220, 228, 238, 237, 247, 254, 258, 276, 266, 268, 281, 282, 292, 299, 300, 301, 320, 340, 340, 338, 162, 146, 153, 160, 161, 160, 155, 145, 155, 150, 158, 161, 162, 175, 190, 210, 211, 207, 216, 217, 228, 232, 230, 229, 231, 232, 234, 239, 272, 286, 287, 296, 288, 284, 296, 309, 315, 302, 324, 325, 333, 334, 167, 182, 171, 183, 162, 175, 164, 180, 169, 182, 171, 178, 170, 177, 179, 197, 210, 228, 223, 224, 227, 237, 231, 232, 260, 244, 249, 252, 261, 269, 274, 276, 278, 292, 300, 322, 335, 333, 332, 347, 346, 370, 204, 196, 199, 198, 197, 187, 202, 201, 195, 183, 194, 191, 197, 178, 182, 205, 213, 229, 225, 225, 233, 235, 236, 237, 238, 239, 254, 256, 268, 269, 283, 292, 315, 294, 304, 313, 336, 334, 346, 357, 361, 363, 209, 201, 200, 203, 207, 212, 218, 223, 213, 225, 212, 210, 205, 209, 190, 193, 200, 209, 210, 219, 225, 228, 237, 237, 238, 261, 262, 272, 270, 277, 293, 311, 327, 321, 312, 325, 337, 382, 349, 353, 354, 361, 227, 218, 217, 209, 210, 212, 215, 224, 231, 226, 237, 240, 227, 222, 210, 200, 207, 208, 219, 220, 221, 227, 233, 236, 251, 267, 268, 282, 292, 289, 292, 304, 305, 306, 309, 316, 334, 375, 364, 358, 387, 370, 243, 235, 231, 225, 211, 212, 213, 221, 240, 246, 245, 237, 236, 235, 218, 225, 218, 221, 222, 223, 228, 236, 237, 255, 267, 287, 285, 290, 297, 298, 294, 304, 309, 317, 314, 334, 337, 351, 352, 353, 388, 395, 250, 238, 234, 223, 214, 213, 227, 226, 237, 239, 242, 238, 240, 236, 258, 241, 231, 226, 236, 234, 253, 254, 268, 258, 268, 274, 288, 291, 304, 311, 308, 305, 318, 331, 342, 338, 349, 355, 360, 371, 378, 415, 250, 231, 229, 228, 221, 237, 230, 231, 249, 252, 245, 246, 253, 253, 242, 241, 235, 236, 248, 260, 262, 263, 272, 277, 282, 290, 291, 299, 300, 304, 305, 310, 315, 328, 350, 366, 377, 376, 361, 366, 376, 389, 246, 244, 243, 230, 241, 238, 242, 241, 246, 277, 261, 260, 265, 278, 296, 243, 248, 242, 247, 264, 278, 274, 275, 276, 292, 308, 303, 302, 303, 306, 316, 315, 324, 331, 338, 376, 379, 377, 378, 387, 388, 394, 253, 252, 251, 254, 246, 254, 243, 244, 245, 251, 265, 267, 269, 272, 291, 279, 276, 268, 260, 271, 272, 273, 282, 301, 305, 307, 306, 318, 310, 311, 320, 321, 325, 334, 339, 340, 383, 372, 384, 393, 392, 407, 280, 274, 271, 280, 268, 269, 268, 279, 295, 307, 308, 293, 292, 291, 282, 284, 269, 270, 271, 277, 274, 277, 278, 291, 295, 296, 310, 325, 312, 328, 343, 344, 335, 349, 353, 363, 371, 389, 390, 398, 406];
Start = 1;
End = 880;
Time = 407;
